(set-info :source |printed by MathSAT|)
(declare-fun |.y{7}| () Int)
(declare-fun |.y{8}| () Int)
(declare-fun |.x{114}| () (Array Int Int))
(declare-fun |.y{9}| () (Array Int Int))
(declare-fun |.x{107}| () (Array Int Int))
(declare-fun |.y{10}| () (Array Int Int))
(declare-fun |.x{113}| () Int)
(declare-fun |.y{11}| () Int)
(declare-fun |.x{106}| () Int)
(declare-fun |.y{12}| () Int)
(declare-fun |.x{112}| () Int)
(declare-fun |.y{13}| () Int)
(declare-fun |.loc{3}| () Bool)
(declare-fun |.loc{5}| () Bool)
(declare-fun |.loc{4}| () Bool)
(declare-fun |.loc{6}| () Bool)
(declare-fun |.x{44}| () (Array Int Int))
(declare-fun |.x{86}| () Bool)
(declare-fun |.x{85}| () Bool)
(declare-fun |.x{84}| () Bool)
(declare-fun |.x{41}| () (Array Int Int))
(declare-fun |.x{83}| () Int)
(declare-fun |.x{82}| () Int)
(declare-fun |.x{87}| () Bool)
(declare-fun |.x{30}| () Int)
(declare-fun |.x{108}| () Int)
(declare-fun |.x{115}| () Int)
(declare-fun |.x{79}| () Bool)
(declare-fun |.x{36}| () Int)
(declare-fun |.x{37}| () (Array Int Int))
(declare-fun |.x{89}| () Bool)
(declare-fun |.x{88}| () Bool)
(define-fun .def_20 () Bool (! |.loc{3}| :next |.loc{5}|))
(define-fun .def_175 () Bool (not .def_20))
(define-fun .def_22 () Bool (! |.loc{4}| :next |.loc{6}|))
(define-fun .def_52 () Bool (not .def_22))
(define-fun .def_298 () Bool (! (and .def_52 .def_175) :init true))
(define-fun .def_10 () (Array Int Int) (! |.x{114}| :next |.y{9}|))
(define-fun .def_288 () Int (select .def_10 |.x{115}|))
(define-fun .def_289 () Bool (= .def_288 20))
(define-fun .def_290 () Bool (not .def_289))
(define-fun .def_110 () Int (* (- 1) |.x{115}|))
(define-fun .def_18 () Int (! |.x{112}| :next |.y{13}|))
(define-fun .def_278 () Int (+ .def_18 .def_110))
(define-fun .def_14 () Int (! |.x{113}| :next |.y{11}|))
(define-fun .def_279 () Int (+ .def_14 .def_278))
(define-fun .def_280 () Bool (= .def_279 0))
(define-fun .def_271 () Bool (<= |.x{115}| 0))
(define-fun .def_272 () Bool (not .def_271))
(define-fun .def_38 () Bool (<= .def_14 0))
(define-fun .def_273 () Bool (or .def_38 .def_272))
(define-fun .def_12 () (Array Int Int) (! |.x{107}| :next |.y{10}|))
(define-fun .def_238 () Int (select .def_12 |.x{108}|))
(define-fun .def_269 () Bool (= .def_238 10))
(define-fun .def_222 () Int (* (- 1) |.x{108}|))
(define-fun .def_223 () Int (+ .def_18 .def_222))
(define-fun .def_16 () Int (! |.x{106}| :next |.y{12}|))
(define-fun .def_224 () Int (+ .def_16 .def_223))
(define-fun .def_225 () Bool (= .def_224 0))
(define-fun .def_270 () Bool (and .def_225 .def_269))
(define-fun .def_274 () Bool (and .def_270 .def_273))
(define-fun .def_39 () Bool (not .def_38))
(define-fun .def_275 () Bool (and .def_39 .def_274))
(define-fun .def_281 () Bool (and .def_275 .def_280))
(define-fun .def_242 () Bool (<= 100000 .def_18))
(define-fun .def_243 () Bool (not .def_242))
(define-fun .def_282 () Bool (and .def_243 .def_281))
(define-fun .def_283 () Bool (and .def_22 .def_282))
(define-fun .def_284 () Bool (and .def_175 .def_283))
(define-fun .def_231 () Bool (<= .def_16 0))
(define-fun .def_229 () Bool (<= |.x{108}| 0))
(define-fun .def_230 () Bool (not .def_229))
(define-fun .def_232 () Bool (or .def_230 .def_231))
(define-fun .def_285 () Bool (and .def_232 .def_284))
(define-fun .def_235 () Bool (not .def_231))
(define-fun .def_286 () Bool (and .def_235 .def_285))
(define-fun .def_287 () Bool (and |.loc{5}| .def_286))
(define-fun .def_291 () Bool (and .def_287 .def_290))
(define-fun .def_292 () Bool (and .def_290 .def_291))
(define-fun .def_267 () Bool (= |.y{12}| .def_18))
(define-fun .def_260 () Bool (= |.y{13}| 0))
(define-fun .def_180 () Bool (not |.loc{5}|))
(define-fun .def_259 () Bool (and .def_52 .def_180))
(define-fun .def_261 () Bool (and .def_259 .def_260))
(define-fun .def_8 () Int (! |.y{7}| :next |.y{8}|))
(define-fun .def_64 () Bool (<= 100000 .def_8))
(define-fun .def_262 () Bool (and .def_64 .def_261))
(define-fun .def_186 () Bool (= .def_10 |.y{9}|))
(define-fun .def_263 () Bool (and .def_186 .def_262))
(define-fun .def_264 () Bool (and .def_20 .def_263))
(define-fun .def_188 () Bool (= .def_12 |.y{10}|))
(define-fun .def_265 () Bool (and .def_188 .def_264))
(define-fun .def_73 () Bool (= .def_14 |.y{11}|))
(define-fun .def_266 () Bool (and .def_73 .def_265))
(define-fun .def_268 () Bool (and .def_266 .def_267))
(define-fun .def_293 () Bool (or .def_268 .def_292))
(define-fun .def_256 () Bool (and |.x{87}| |.x{79}|))
(define-fun .def_226 () Bool (not |.x{87}|))
(define-fun .def_257 () Bool (or .def_226 .def_256))
(define-fun .def_89 () Int (* (- 1) |.x{82}|))
(define-fun .def_90 () Int (+ .def_18 .def_89))
(define-fun .def_252 () Int (+ .def_14 .def_90))
(define-fun .def_253 () Bool (= .def_252 0))
(define-fun .def_41 () Bool (not |.x{84}|))
(define-fun .def_254 () Bool (or .def_41 .def_253))
(define-fun .def_117 () Bool (= |.x{115}| 10))
(define-fun .def_245 () Bool (= .def_117 |.x{89}|))
(define-fun .def_246 () Bool (or .def_226 .def_245))
(define-fun .def_239 () Bool (= |.x{115}| .def_238))
(define-fun .def_240 () Bool (or .def_226 .def_239))
(define-fun .def_236 () Bool (or .def_226 .def_235))
(define-fun .def_233 () Bool (or .def_226 .def_232))
(define-fun .def_227 () Bool (or .def_225 .def_226))
(define-fun .def_218 () Int (* (- 1) |.y{13}|))
(define-fun .def_219 () Int (+ .def_18 .def_218))
(define-fun .def_220 () Bool (= .def_219 (- 2)))
(define-fun .def_215 () Bool (not |.x{89}|))
(define-fun .def_209 () Bool (and |.x{87}| |.x{88}|))
(define-fun .def_214 () Bool (not .def_209))
(define-fun .def_216 () Bool (or .def_214 .def_215))
(define-fun .def_122 () Bool (and |.x{85}| |.x{84}|))
(define-fun .def_125 () Bool (not .def_122))
(define-fun .def_212 () Bool (or |.x{86}| .def_125))
(define-fun .def_210 () Bool (or .def_122 .def_209))
(define-fun .def_206 () Bool (not |.x{88}|))
(define-fun .def_207 () Bool (or |.x{87}| .def_206))
(define-fun .def_58 () Bool (not |.x{85}|))
(define-fun .def_203 () Bool (or |.x{84}| .def_58))
(define-fun .def_199 () Bool (= |.x{83}| 20))
(define-fun .def_200 () Bool (= |.x{86}| .def_199))
(define-fun .def_201 () Bool (or .def_41 .def_200))
(define-fun .def_190 () Bool (and |.x{84}| |.x{87}|))
(define-fun .def_194 () Bool (not .def_190))
(define-fun .def_196 () Bool (or .def_194 |.x{89}|))
(define-fun .def_191 () Bool (or .def_41 .def_190))
(define-fun .def_182 () Int (select .def_10 |.x{82}|))
(define-fun .def_183 () Bool (= |.x{83}| .def_182))
(define-fun .def_184 () Bool (or .def_41 .def_183))
(define-fun .def_96 () Bool (<= |.x{82}| 0))
(define-fun .def_97 () Bool (not .def_96))
(define-fun .def_177 () Bool (or .def_38 .def_97))
(define-fun .def_178 () Bool (or .def_41 .def_177))
(define-fun .def_42 () Bool (or .def_39 .def_41))
(define-fun .def_179 () Bool (and .def_42 .def_178))
(define-fun .def_181 () Bool (and .def_179 .def_180))
(define-fun .def_185 () Bool (and .def_181 .def_184))
(define-fun .def_187 () Bool (and .def_185 .def_186))
(define-fun .def_189 () Bool (and .def_187 .def_188))
(define-fun .def_192 () Bool (and .def_189 .def_191))
(define-fun .def_193 () Bool (and .def_73 .def_192))
(define-fun .def_197 () Bool (and .def_193 .def_196))
(define-fun .def_79 () Bool (= .def_16 |.y{12}|))
(define-fun .def_198 () Bool (and .def_79 .def_197))
(define-fun .def_202 () Bool (and .def_198 .def_201))
(define-fun .def_204 () Bool (and .def_202 .def_203))
(define-fun .def_208 () Bool (and .def_204 .def_207))
(define-fun .def_211 () Bool (and .def_208 .def_210))
(define-fun .def_213 () Bool (and .def_211 .def_212))
(define-fun .def_217 () Bool (and .def_213 .def_216))
(define-fun .def_221 () Bool (and .def_217 .def_220))
(define-fun .def_228 () Bool (and .def_221 .def_227))
(define-fun .def_234 () Bool (and .def_228 .def_233))
(define-fun .def_237 () Bool (and .def_234 .def_236))
(define-fun .def_241 () Bool (and .def_237 .def_240))
(define-fun .def_244 () Bool (and .def_241 .def_243))
(define-fun .def_247 () Bool (and .def_244 .def_246))
(define-fun .def_248 () Bool (and .def_22 .def_247))
(define-fun .def_249 () Bool (and .def_175 .def_248))
(define-fun .def_255 () Bool (and .def_249 .def_254))
(define-fun .def_258 () Bool (and .def_255 .def_257))
(define-fun .def_294 () Bool (or .def_258 .def_293))
(define-fun .def_295 () Bool (and |.loc{6}| .def_294))
(define-fun .def_173 () Bool (= .def_8 |.y{12}|))
(define-fun .def_170 () Bool (<= |.y{13}| 0))
(define-fun .def_171 () Bool (not .def_170))
(define-fun .def_167 () Bool (<= |.y{11}| 0))
(define-fun .def_168 () Bool (not .def_167))
(define-fun .def_165 () Bool (= |.y{8}| 0))
(define-fun .def_163 () Bool (and |.loc{5}| .def_52))
(define-fun .def_128 () Bool (not |.loc{6}|))
(define-fun .def_164 () Bool (and .def_128 .def_163))
(define-fun .def_166 () Bool (and .def_164 .def_165))
(define-fun .def_169 () Bool (and .def_166 .def_168))
(define-fun .def_172 () Bool (and .def_169 .def_171))
(define-fun .def_174 () Bool (and .def_172 .def_173))
(define-fun .def_176 () Bool (and .def_174 .def_175))
(define-fun .def_296 () Bool (or .def_176 .def_295))
(define-fun .def_160 () Bool (not |.x{79}|))
(define-fun .def_28 () Bool (and |.x{86}| |.x{85}|))
(define-fun .def_29 () Bool (not .def_28))
(define-fun .def_161 () Bool (or .def_29 .def_160))
(define-fun .def_157 () Bool (= |.x{41}| |.x{37}|))
(define-fun .def_158 () Bool (or .def_41 .def_157))
(define-fun .def_155 () Bool (or .def_28 |.x{84}|))
(define-fun .def_151 () Bool (not |.x{86}|))
(define-fun .def_152 () Bool (or |.x{85}| .def_151))
(define-fun .def_146 () (Array Int Int) (store .def_10 |.x{36}| 20))
(define-fun .def_148 () Bool (= .def_146 |.x{37}|))
(define-fun .def_149 () Bool (or .def_41 .def_148))
(define-fun .def_140 () Bool (<= |.x{36}| 0))
(define-fun .def_141 () Bool (not .def_140))
(define-fun .def_142 () Bool (or .def_38 .def_141))
(define-fun .def_143 () Bool (or .def_41 .def_142))
(define-fun .def_134 () Int (* (- 1) |.x{36}|))
(define-fun .def_135 () Int (+ .def_14 .def_134))
(define-fun .def_136 () Int (+ .def_8 .def_135))
(define-fun .def_137 () Bool (= .def_136 0))
(define-fun .def_138 () Bool (or .def_41 .def_137))
(define-fun .def_126 () Bool (or |.x{79}| .def_125))
(define-fun .def_123 () Bool (or .def_41 .def_122))
(define-fun .def_119 () Bool (= .def_117 |.x{79}|))
(define-fun .def_120 () Bool (or .def_58 .def_119))
(define-fun .def_105 () Real (* (/ 1 256) (to_real |.x{108}|)))
(define-fun .def_106 () Int (to_int .def_105))
(define-fun .def_108 () Int (* (- 256) .def_106))
(define-fun .def_111 () Int (+ .def_108 .def_110))
(define-fun .def_112 () Int (+ |.x{108}| .def_111))
(define-fun .def_113 () Bool (= .def_112 0))
(define-fun .def_114 () Bool (or .def_58 .def_113))
(define-fun .def_95 () Bool (<= .def_18 0))
(define-fun .def_101 () Bool (not .def_95))
(define-fun .def_102 () Bool (or .def_58 .def_101))
(define-fun .def_98 () Bool (or .def_95 .def_97))
(define-fun .def_99 () Bool (or .def_58 .def_98))
(define-fun .def_91 () Int (+ .def_8 .def_90))
(define-fun .def_92 () Bool (= .def_91 0))
(define-fun .def_93 () Bool (or .def_58 .def_92))
(define-fun .def_82 () Bool (= |.x{83}| |.x{108}|))
(define-fun .def_83 () Bool (or .def_58 .def_82))
(define-fun .def_76 () Bool (= .def_16 |.x{30}|))
(define-fun .def_77 () Bool (or .def_58 .def_76))
(define-fun .def_67 () Bool (and |.x{85}| |.x{87}|))
(define-fun .def_71 () Bool (or .def_58 .def_67))
(define-fun .def_68 () Bool (not .def_67))
(define-fun .def_65 () Bool (not .def_64))
(define-fun .def_69 () Bool (or .def_65 .def_68))
(define-fun .def_61 () Bool (= .def_18 |.y{13}|))
(define-fun .def_56 () (Array Int Int) (store .def_12 |.x{82}| |.x{83}|))
(define-fun .def_57 () Bool (= |.y{10}| .def_56))
(define-fun .def_59 () Bool (or .def_57 .def_58))
(define-fun .def_49 () Bool (= |.y{9}| |.x{44}|))
(define-fun .def_50 () Bool (or .def_29 .def_49))
(define-fun .def_46 () Bool (= |.y{9}| |.x{41}|))
(define-fun .def_47 () Bool (or .def_41 .def_46))
(define-fun .def_33 () Int (* (- 1) |.y{8}|))
(define-fun .def_34 () Int (+ .def_8 .def_33))
(define-fun .def_35 () Bool (= .def_34 (- 2)))
(define-fun .def_25 () Bool (= .def_10 |.x{44}|))
(define-fun .def_30 () Bool (or .def_25 .def_29))
(define-fun .def_36 () Bool (and .def_30 .def_35))
(define-fun .def_43 () Bool (and .def_36 .def_42))
(define-fun .def_44 () Bool (and |.loc{5}| .def_43))
(define-fun .def_48 () Bool (and .def_44 .def_47))
(define-fun .def_51 () Bool (and .def_48 .def_50))
(define-fun .def_53 () Bool (and .def_51 .def_52))
(define-fun .def_60 () Bool (and .def_53 .def_59))
(define-fun .def_62 () Bool (and .def_60 .def_61))
(define-fun .def_70 () Bool (and .def_62 .def_69))
(define-fun .def_72 () Bool (and .def_70 .def_71))
(define-fun .def_74 () Bool (and .def_72 .def_73))
(define-fun .def_78 () Bool (and .def_74 .def_77))
(define-fun .def_80 () Bool (and .def_78 .def_79))
(define-fun .def_84 () Bool (and .def_80 .def_83))
(define-fun .def_94 () Bool (and .def_84 .def_93))
(define-fun .def_100 () Bool (and .def_94 .def_99))
(define-fun .def_103 () Bool (and .def_100 .def_102))
(define-fun .def_115 () Bool (and .def_103 .def_114))
(define-fun .def_121 () Bool (and .def_115 .def_120))
(define-fun .def_124 () Bool (and .def_121 .def_123))
(define-fun .def_127 () Bool (and .def_124 .def_126))
(define-fun .def_129 () Bool (and .def_127 .def_128))
(define-fun .def_139 () Bool (and .def_129 .def_138))
(define-fun .def_144 () Bool (and .def_139 .def_143))
(define-fun .def_150 () Bool (and .def_144 .def_149))
(define-fun .def_153 () Bool (and .def_150 .def_152))
(define-fun .def_154 () Bool (and .def_20 .def_153))
(define-fun .def_156 () Bool (and .def_154 .def_155))
(define-fun .def_159 () Bool (and .def_156 .def_158))
(define-fun .def_162 () Bool (and .def_159 .def_161))
(define-fun .def_297 () Bool (! (or .def_162 .def_296) :trans true))
(define-fun .def_299 () Bool (and .def_20 .def_22))
(define-fun .def_300 () Bool (! (not .def_299) :invar-property 0))
(assert true)
